22 4
66 85 71 60 83 40 82 21 100 27 75 71 65 46 14 33 54 90 15 24 82 87
79 76 50 44 71 39 93 39 105 15 66 62 66 41 36 17 35 98 35 45 74 71
67 82 65 49 90 52 99 41 85 28 69 56 79 56 17 45 45 89 25 16 83 80
66 83 49 68 84 56 89 36 102 29 67 71 65 56 9 17 39 99 28 41 83 73
